611,309
635,264
709,229
829,258
667,318
611,309
600,566
626,577
598,662
415,364
171,406
533,383
415,364
563,424
611,503
823,452
1095,341
321,46
803,166
822,212
921,406
753,458
658,554
453,480
148,490
606,880
753,458
786,261
808,279
598,662
515,919
453,480
533,383
600,246
570,64
600,246
635,264
611,503
600,566
